p cnf 7230 16
1140 1274 -1794 0
1137 1280 -1792 0
1134 1276 -1790 0
1131 1278 -1788 0
-1140 -1795 0
-1137 -1793 0
-1134 -1791 0
-1131 -1789 0
1794 1795 0
1792 1793 0
1790 1791 0
1788 1789 0
-1274 -1795 0
-1280 -1793 0
-1276 -1791 0
-1278 -1789 0
